n = 12;
k = 3;
maxsize = 12;
nML = 3;
nCL = 3;
deg = [4, 4, 4, 3, 4, 4, 1, 2, 1, 4, 1, 4];
ML = array2d(1..3, 1..2, [4, 10, 3, 9, 11, 8]);
CL = array2d(1..3, 1..2, [7, 2, 12, 5, 1, 6]);
A = array2d(1..12, 1..12, [ 0, 1, 0, 1, 1, 0, 0, 0, 0, 1, 0, 0, 1, 0, 0, 0, 1, 0, 1, 0, 0, 0, 0, 1, 0, 0, 0, 1, 0, 1, 0, 0, 0, 0, 1, 1, 1, 0, 1, 0, 0, 1, 0, 0, 0, 0, 0, 0, 1, 1, 0, 0, 0, 0, 0, 0, 1, 0, 0, 1, 0, 0, 1, 1, 0, 0, 0, 1, 0, 1, 0, 0, 0, 1, 0, 0, 0, 0, 0, 0, 0, 0, 0, 0, 0, 0, 0, 0, 0, 1, 0, 0, 0, 1, 0, 0, 0, 0, 0, 0, 1, 0, 0, 0, 0, 0, 0, 0, 1, 0, 0, 0, 0, 1, 0, 1, 0, 0, 0, 1, 0, 0, 1, 0, 0, 0, 0, 0, 0, 0, 0, 0, 0, 1, 1, 0, 1, 0, 0, 0, 0, 1, 0, 0 ]);
W = array2d(1..12, 1..12, [ 10, -1, -6, -3, 1, -6, 6, -8, 10, -6, -9, 2, -8, 9, 5, -2, -5, 0, -5, -8, -10, -1, 10, -5, 10, -9, -4, -6, 3, 0, 5, -4, -4, 9, -8, -5, -8, 5, -4, 8, 3, -9, 8, 1, 7, -7, 3, -2, -10, 7, -4, 1, -8, 1, -2, -6, 10, -6, 3, -9, -8, -8, -4, 5, 5, 10, 3, 6, 6, -5, -2, 5, 1, -8, 2, 8, -7, -4, 7, -7, 0, 6, -10, 5, 7, -9, 7, -7, 0, 10, 4, 0, -3, 6, 6, -7, -4, -1, 4, 6, 5, -4, -10, 8, -4, -4, -1, -2, 3, -4, 3, 9, -8, 2, 8, 5, 6, 1, -9, 0, 2, 8, -3, 1, 0, 2, -4, 5, -6, 8, 8, -3, 0, -7, 6, 1, 7, -10, 10, -1, 9, -9, -2, -1 ]);